c Random 3-SAT formula
c Number of variables: 7
c Number of clauses: 25
p cnf 7 25
-6 7 3 0
-6 5 4 0
4 -6 2 0
3 1 -2 0
-6 -4 -2 0
-2 -3 1 0
2 -3 7 0
2 -5 -1 0
3 6 -5 0
2 -4 5 0
1 5 3 0
1 4 -2 0
1 -3 -4 0
-7 -1 3 0
5 -3 6 0
-1 3 -6 0
-2 -3 6 0
2 -5 -3 0
-3 2 -4 0
1 -5 3 0
4 7 -6 0
-4 1 -3 0
-1 -5 4 0
1 3 7 0
-7 4 -6 0
